; SWAP2 DUP3 DUP4 SWAP2 => DUP1 DUP2 SWAP4
(set-option :produce-proofs true)
; 
(set-info :status unknown)
(declare-fun storage_t ((_ BitVec 256) (_ BitVec 256) (_ BitVec 256) Int (_ BitVec 256)) (_ BitVec 256))
(declare-fun storage_s ((_ BitVec 256) (_ BitVec 256) (_ BitVec 256) Int (_ BitVec 256)) (_ BitVec 256))
(declare-fun exc_halt_t (Int) Bool)
(declare-fun exc_halt_s (Int) Bool)
(declare-fun stack_t ((_ BitVec 256) (_ BitVec 256) (_ BitVec 256) Int (_ BitVec 6)) (_ BitVec 256))
(declare-fun stack_s ((_ BitVec 256) (_ BitVec 256) (_ BitVec 256) Int (_ BitVec 6)) (_ BitVec 256))
(declare-fun sc_t (Int) (_ BitVec 6))
(declare-fun sc_s (Int) (_ BitVec 6))
(declare-fun used_gas_t ((_ BitVec 256) (_ BitVec 256) (_ BitVec 256) Int) Int)
(declare-fun used_gas_s ((_ BitVec 256) (_ BitVec 256) (_ BitVec 256) Int) Int)
(assert
 (exists ((x_0 (_ BitVec 256)) (x_1 (_ BitVec 256)) (x_2 (_ BitVec 256)) )(let (($x3522 (forall ((w (_ BitVec 256)) )(let ((?x8846 (storage_t x_0 x_1 x_2 3 w)))
 (let ((?x3104 (storage_s x_0 x_1 x_2 4 w)))
 (= ?x3104 ?x8846))))
 ))
 (let (($x10336 (exc_halt_t 3)))
 (let (($x64 (exc_halt_s 4)))
 (let (($x8692 (= $x64 $x10336)))
 (let (($x2323 (forall ((n (_ BitVec 6)) )(let ((?x3396 (stack_t x_0 x_1 x_2 3 n)))
 (let ((?x9073 (stack_s x_0 x_1 x_2 4 n)))
 (let (($x8876 (= ?x9073 ?x3396)))
 (let ((?x2012 (sc_t 3)))
 (let (($x6243 (bvsle ?x2012 n)))
 (or $x6243 $x8876)))))))
 ))
 (let ((?x2012 (sc_t 3)))
 (let ((?x4305 (sc_s 4)))
 (let (($x7720 (= ?x4305 ?x2012)))
 (let ((?x6038 (used_gas_t x_0 x_1 x_2 0)))
 (let ((?x4761 (used_gas_s x_0 x_1 x_2 0)))
 (let (($x7547 (= ?x4761 ?x6038)))
 (let (($x8641 (forall ((w (_ BitVec 256)) )(let ((?x8486 (storage_t x_0 x_1 x_2 0 w)))
 (let ((?x9401 (storage_s x_0 x_1 x_2 0 w)))
 (= ?x9401 ?x8486))))
 ))
 (let (($x56 (exc_halt_t 0)))
 (let (($x57 (exc_halt_s 0)))
 (let (($x58 (= $x57 $x56)))
 (let (($x3288 (forall ((n (_ BitVec 6)) )(let ((?x3557 (stack_t x_0 x_1 x_2 0 n)))
 (let ((?x9599 (stack_s x_0 x_1 x_2 0 n)))
 (let (($x7895 (= ?x9599 ?x3557)))
 (let ((?x63 (sc_t 0)))
 (let (($x1361 (bvsle ?x63 n)))
 (or $x1361 $x7895)))))))
 ))
 (let ((?x63 (sc_t 0)))
 (let ((?x72 (sc_s 0)))
 (let (($x73 (= ?x72 ?x63)))
 (let (($x9619 (= $x10336 (or (exc_halt_t 2) (not (bvsle (_ bv0 6) (bvadd (_ bv59 6) (sc_t 2))))))))
 (let (($x10036 (forall ((w (_ BitVec 256)) )(let ((?x6109 (storage_t x_0 x_1 x_2 2 w)))
 (let ((?x8846 (storage_t x_0 x_1 x_2 3 w)))
 (= ?x8846 ?x6109))))
 ))
 (let (($x3656 (forall ((n (_ BitVec 6)) )(let ((?x3011 (stack_t x_0 x_1 x_2 2 n)))
 (let ((?x3396 (stack_t x_0 x_1 x_2 3 n)))
 (or (= ?x3396 ?x3011) (bvsle (bvadd (_ bv59 6) (sc_t 2)) n)))))
 ))
 (let (($x9468 (= (used_gas_t x_0 x_1 x_2 3) (+ 3 (used_gas_t x_0 x_1 x_2 2)))))
 (let (($x4080 (= (stack_t x_0 x_1 x_2 3 (bvadd (_ bv62 6) ?x2012)) (stack_t x_0 x_1 x_2 2 (bvadd (_ bv62 6) (sc_t 2))))))
 (let (($x3409 (= (stack_t x_0 x_1 x_2 3 (bvadd (_ bv61 6) ?x2012)) (stack_t x_0 x_1 x_2 2 (bvadd (_ bv61 6) (sc_t 2))))))
 (let (($x9139 (= (stack_t x_0 x_1 x_2 3 (bvadd (_ bv60 6) ?x2012)) (stack_t x_0 x_1 x_2 2 (bvadd (_ bv60 6) (sc_t 2))))))
 (let ((?x4056 (sc_t 2)))
 (let ((?x1438 (bvadd (_ bv63 6) ?x4056)))
 (let ((?x6711 (stack_t x_0 x_1 x_2 2 ?x1438)))
 (let (($x4433 (= (stack_t x_0 x_1 x_2 3 (bvadd (_ bv63 6) ?x2012)) (stack_t x_0 x_1 x_2 2 (bvadd (_ bv59 6) ?x4056)))))
 (let (($x6851 (not (= ((_ extract 6 6) (bvadd (_ bv1 7) (concat (_ bv0 1) (sc_t 1)))) (_ bv0 1)))))
 (let (($x1920 (exc_halt_t 1)))
 (let (($x903 (exc_halt_t 2)))
 (let (($x627 (forall ((w (_ BitVec 256)) )(let ((?x7154 (storage_t x_0 x_1 x_2 1 w)))
 (let ((?x6109 (storage_t x_0 x_1 x_2 2 w)))
 (= ?x6109 ?x7154))))
 ))
 (let (($x10371 (forall ((n (_ BitVec 6)) )(let ((?x10159 (stack_t x_0 x_1 x_2 1 n)))
 (let ((?x3011 (stack_t x_0 x_1 x_2 2 n)))
 (or (= ?x3011 ?x10159) (bvsle (bvadd (_ bv62 6) (sc_t 1)) n)))))
 ))
 (let (($x6523 (= ?x4056 (bvadd (_ bv1 6) (sc_t 1)))))
 (let ((?x9781 (used_gas_t x_0 x_1 x_2 2)))
 (let ((?x4023 (sc_t 1)))
 (let ((?x1843 (bvadd (_ bv63 6) ?x4023)))
 (let ((?x742 (stack_t x_0 x_1 x_2 1 ?x1843)))
 (let ((?x4085 (bvadd (_ bv62 6) ?x4023)))
 (let ((?x3908 (stack_t x_0 x_1 x_2 1 ?x4085)))
 (let (($x6222 (not (= ((_ extract 6 6) (bvadd (_ bv1 7) (concat (_ bv0 1) ?x63))) (_ bv0 1)))))
 (let (($x5017 (= $x1920 (or $x56 (not (bvsle (_ bv0 6) (bvadd (_ bv63 6) ?x63))) $x6222))))
 (let (($x3278 (forall ((w (_ BitVec 256)) )(let ((?x8486 (storage_t x_0 x_1 x_2 0 w)))
 (let ((?x7154 (storage_t x_0 x_1 x_2 1 w)))
 (= ?x7154 ?x8486))))
 ))
 (let (($x9669 (forall ((n (_ BitVec 6)) )(let ((?x63 (sc_t 0)))
 (let ((?x6326 (bvadd (_ bv63 6) ?x63)))
 (let (($x8483 (bvsle ?x6326 n)))
 (let ((?x3557 (stack_t x_0 x_1 x_2 0 n)))
 (let ((?x10159 (stack_t x_0 x_1 x_2 1 n)))
 (or (= ?x10159 ?x3557) $x8483)))))))
 ))
 (let (($x2669 (= ?x4023 (bvadd (_ bv1 6) ?x63))))
 (let ((?x6326 (bvadd (_ bv63 6) ?x63)))
 (let ((?x5309 (stack_t x_0 x_1 x_2 0 ?x6326)))
 (let (($x10370 (= $x64 (or (exc_halt_s 3) (not (bvsle (_ bv0 6) (bvadd (_ bv61 6) (sc_s 3))))))))
 (let (($x2823 (forall ((w (_ BitVec 256)) )(let ((?x6359 (storage_s x_0 x_1 x_2 3 w)))
 (let ((?x3104 (storage_s x_0 x_1 x_2 4 w)))
 (= ?x3104 ?x6359))))
 ))
 (let (($x6190 (forall ((n (_ BitVec 6)) )(let ((?x8988 (stack_s x_0 x_1 x_2 3 n)))
 (let ((?x9073 (stack_s x_0 x_1 x_2 4 n)))
 (let ((?x275 (sc_s 3)))
 (let ((?x7590 (bvadd (_ bv61 6) ?x275)))
 (let (($x5175 (bvsle ?x7590 n)))
 (or $x5175 (= ?x9073 ?x8988))))))))
 ))
 (let ((?x275 (sc_s 3)))
 (let (($x936 (= ?x4305 ?x275)))
 (let (($x3530 (= (used_gas_s x_0 x_1 x_2 4) (+ 3 (used_gas_s x_0 x_1 x_2 3)))))
 (let (($x1495 (= (stack_s x_0 x_1 x_2 4 (bvadd (_ bv62 6) ?x4305)) (stack_s x_0 x_1 x_2 3 (bvadd (_ bv62 6) ?x275)))))
 (let ((?x9192 (bvadd (_ bv63 6) ?x275)))
 (let ((?x7561 (stack_s x_0 x_1 x_2 3 ?x9192)))
 (let (($x10508 (= (stack_s x_0 x_1 x_2 4 (bvadd (_ bv63 6) ?x4305)) (stack_s x_0 x_1 x_2 3 (bvadd (_ bv61 6) ?x275)))))
 (let (($x11259 (not (= ((_ extract 6 6) (bvadd (_ bv1 7) (concat (_ bv0 1) (sc_s 2)))) (_ bv0 1)))))
 (let (($x247 (exc_halt_s 2)))
 (let (($x292 (exc_halt_s 3)))
 (let (($x6641 (forall ((w (_ BitVec 256)) )(let ((?x5376 (storage_s x_0 x_1 x_2 2 w)))
 (let ((?x6359 (storage_s x_0 x_1 x_2 3 w)))
 (= ?x6359 ?x5376))))
 ))
 (let (($x10436 (forall ((n (_ BitVec 6)) )(let ((?x6849 (stack_s x_0 x_1 x_2 2 n)))
 (let ((?x8988 (stack_s x_0 x_1 x_2 3 n)))
 (or (= ?x8988 ?x6849) (bvsle (bvadd (_ bv60 6) (sc_s 2)) n)))))
 ))
 (let (($x11338 (= ?x275 (bvadd (_ bv1 6) (sc_s 2)))))
 (let ((?x3667 (used_gas_s x_0 x_1 x_2 3)))
 (let ((?x218 (sc_s 2)))
 (let ((?x2961 (bvadd (_ bv63 6) ?x218)))
 (let ((?x5792 (stack_s x_0 x_1 x_2 2 ?x2961)))
 (let (($x7621 (= (stack_s x_0 x_1 x_2 3 (bvadd (_ bv62 6) ?x218)) (stack_s x_0 x_1 x_2 2 (bvadd (_ bv62 6) ?x218)))))
 (let (($x9572 (= (stack_s x_0 x_1 x_2 3 (bvadd (_ bv61 6) ?x218)) (stack_s x_0 x_1 x_2 2 (bvadd (_ bv61 6) ?x218)))))
 (let ((?x10590 (bvadd (_ bv60 6) ?x218)))
 (let ((?x788 (stack_s x_0 x_1 x_2 2 ?x10590)))
 (let (($x11391 (not (= ((_ extract 6 6) (bvadd (_ bv1 7) (concat (_ bv0 1) (sc_s 1)))) (_ bv0 1)))))
 (let (($x6890 (not (bvsle (_ bv0 6) (bvadd (_ bv61 6) (sc_s 1))))))
 (let (($x189 (exc_halt_s 1)))
 (let (($x8007 (= $x247 (or $x189 $x6890 $x11391))))
 (let (($x10312 (forall ((w (_ BitVec 256)) )(let ((?x1015 (storage_s x_0 x_1 x_2 1 w)))
 (let ((?x5376 (storage_s x_0 x_1 x_2 2 w)))
 (= ?x5376 ?x1015))))
 ))
 (let (($x7437 (forall ((n (_ BitVec 6)) )(let ((?x154 (sc_s 1)))
 (let ((?x8011 (bvadd (_ bv61 6) ?x154)))
 (let (($x2449 (bvsle ?x8011 n)))
 (let ((?x971 (stack_s x_0 x_1 x_2 1 n)))
 (let ((?x6849 (stack_s x_0 x_1 x_2 2 n)))
 (or (= ?x6849 ?x971) $x2449)))))))
 ))
 (let (($x11361 (= ?x218 (bvadd (_ bv1 6) (sc_s 1)))))
 (let ((?x9148 (used_gas_s x_0 x_1 x_2 2)))
 (let ((?x154 (sc_s 1)))
 (let ((?x11219 (bvadd (_ bv63 6) ?x154)))
 (let ((?x8996 (stack_s x_0 x_1 x_2 1 ?x11219)))
 (let ((?x5785 (bvadd (_ bv62 6) ?x154)))
 (let ((?x9408 (stack_s x_0 x_1 x_2 1 ?x5785)))
 (let ((?x8011 (bvadd (_ bv61 6) ?x154)))
 (let ((?x6546 (stack_s x_0 x_1 x_2 1 ?x8011)))
 (let (($x3513 (forall ((w (_ BitVec 256)) )(let ((?x9401 (storage_s x_0 x_1 x_2 0 w)))
 (let ((?x1015 (storage_s x_0 x_1 x_2 1 w)))
 (= ?x1015 ?x9401))))
 ))
 (let (($x973 (forall ((n (_ BitVec 6)) )(let ((?x9599 (stack_s x_0 x_1 x_2 0 n)))
 (let ((?x971 (stack_s x_0 x_1 x_2 1 n)))
 (or (= ?x971 ?x9599) (bvsle (bvadd (_ bv61 6) (sc_s 0)) n)))))
 ))
 (let (($x921 (forall ((w (_ BitVec 256)) )(let ((?x9401 (storage_s x_0 x_1 x_2 0 w)))
 (= ?x9401 (_ bv0 256))))
 ))
 (let (($x6188 (= ?x4761 0)))
 (let (($x11411 (not $x57)))
 (let (($x5741 (= (stack_s x_0 x_1 x_2 0 (_ bv2 6)) x_2)))
 (let (($x3761 (= (stack_s x_0 x_1 x_2 0 (_ bv1 6)) x_1)))
 (let (($x9661 (= (stack_s x_0 x_1 x_2 0 (_ bv0 6)) x_0)))
 (let (($x96 (= ?x72 (_ bv3 6))))
 (and $x96 $x9661 $x3761 $x5741 $x11411 $x6188 $x921 (= ?x8996 (stack_s x_0 x_1 x_2 0 (bvadd (_ bv61 6) ?x72))) (= ?x6546 (stack_s x_0 x_1 x_2 0 (bvadd (_ bv63 6) ?x72))) (= ?x9408 (stack_s x_0 x_1 x_2 0 (bvadd (_ bv62 6) ?x72))) (= (used_gas_s x_0 x_1 x_2 1) (+ 3 ?x4761)) (= ?x154 ?x72) $x973 $x3513 (= $x189 (or $x57 (not (bvsle (_ bv0 6) (bvadd (_ bv61 6) ?x72))))) (= ?x5792 ?x6546) (= (stack_s x_0 x_1 x_2 2 ?x8011) ?x6546) (= (stack_s x_0 x_1 x_2 2 ?x5785) ?x9408) (= (stack_s x_0 x_1 x_2 2 ?x11219) ?x8996) (= ?x9148 (+ 3 (used_gas_s x_0 x_1 x_2 1))) $x11361 $x7437 $x10312 $x8007 (= ?x7561 ?x788) (= (stack_s x_0 x_1 x_2 3 ?x10590) ?x788) $x9572 $x7621 (= (stack_s x_0 x_1 x_2 3 ?x2961) ?x5792) (= ?x3667 (+ 3 ?x9148)) $x11338 $x10436 $x6641 (= $x292 (or $x247 (not (bvsle (_ bv0 6) ?x10590)) $x11259)) $x10508 (= (stack_s x_0 x_1 x_2 4 (bvadd (_ bv61 6) ?x4305)) ?x7561) $x1495 $x3530 $x936 $x6190 $x2823 $x10370 (= ?x742 ?x5309) (= (stack_t x_0 x_1 x_2 1 ?x6326) ?x5309) (= (used_gas_t x_0 x_1 x_2 1) (+ 3 ?x6038)) $x2669 $x9669 $x3278 $x5017 (= ?x6711 ?x3908) (= (stack_t x_0 x_1 x_2 2 ?x4085) ?x3908) (= (stack_t x_0 x_1 x_2 2 ?x1843) ?x742) (= ?x9781 (+ 3 (used_gas_t x_0 x_1 x_2 1))) $x6523 $x10371 $x627 (= $x903 (or $x1920 (not (bvsle (_ bv0 6) ?x4085)) $x6851)) $x4433 (= (stack_t x_0 x_1 x_2 3 (bvadd (_ bv59 6) ?x2012)) ?x6711) $x9139 $x3409 $x4080 $x9468 (= ?x2012 ?x4056) $x3656 $x10036 $x9619 $x73 $x3288 $x58 $x8641 $x7547 (not (and $x7720 $x2323 $x8692 $x3522)))))))))))))))))))))))))))))))))))))))))))))))))))))))))))))))))))))))))))))))))))))))))))))))))))))
 )
(check-sat)
(get-proof)
